400
125 125
1 87 639
2 87 402
3 87 376
4 87 269
5 87 763
6 87 535
7 86 612
8 86 577
9 86 284
10 86 16
11 86 32
12 86 365
13 86 303
14 86 390
15 86 857
16 85 939
17 85 174
18 85 211
19 85 764
20 85 12
21 85 46
22 84 643
23 84 662
24 84 595
25 84 704
26 84 716
27 84 776
28 84 354
29 84 435
30 84 42
31 84 539
32 83 933
33 83 838
34 83 225
35 83 157
36 83 746
37 82 45
38 82 612
39 82 555
40 81 340
41 81 564
42 81 722
43 81 814
44 81 101
45 80 402
46 80 592
47 80 468
48 80 781
49 79 310
50 79 64
51 79 866
52 79 473
53 79 962
54 79 861
55 79 365
56 79 321
57 79 652
58 78 244
59 78 664
60 78 84
61 78 596
62 78 185
63 77 651
64 77 631
65 77 966
66 77 155
67 77 371
68 76 374
69 76 599
70 76 863
71 76 609
72 75 633
73 75 309
74 75 368
75 75 487
76 75 479
77 75 336
78 75 408
79 74 433
80 74 551
81 74 30
82 74 691
83 74 767
84 73 633
85 73 911
86 73 660
87 73 477
88 73 419
89 73 62
90 73 163
91 73 971
92 73 654
93 72 228
94 72 474
95 72 144
96 72 661
97 72 464
98 71 545
99 71 574
100 71 69
101 71 937
102 71 435
103 71 268
104 71 480
105 71 593
106 71 8
107 71 802
108 70 716
109 70 887
110 70 674
111 70 481
112 70 514
113 70 940
114 70 538
115 70 132
116 70 336
117 69 466
118 69 492
119 68 639
120 68 404
121 68 111
122 68 951
123 68 626
124 68 729
125 67 165
126 67 850
127 67 188
128 67 528
129 67 985
130 67 232
131 67 6
132 67 153
133 67 537
134 67 797
135 67 726
136 67 711
137 66 177
138 66 578
139 66 941
140 65 382
141 65 466
142 65 547
143 65 520
144 64 311
145 64 443
146 64 184
147 63 602
148 63 593
149 63 295
150 63 191
151 63 740
152 63 284
153 63 501
154 62 381
155 62 42
156 62 266
157 62 676
158 62 715
159 62 78
160 61 268
161 61 311
162 61 162
163 61 337
164 61 371
165 61 402
166 61 57
167 61 554
168 61 411
169 61 569
170 59 125
171 59 971
172 59 234
173 58 199
174 58 284
175 58 78
176 58 787
177 58 15
178 58 126
179 57 372
180 57 294
181 57 968
182 57 825
183 57 441
184 57 463
185 56 615
186 56 846
187 56 339
188 56 933
189 56 142
190 55 457
191 55 568
192 55 822
193 54 626
194 54 184
195 54 541
196 54 657
197 54 575
198 54 97
199 54 330
200 54 373
201 54 325
202 54 634
203 54 759
204 53 271
205 53 34
206 53 456
207 53 956
208 53 61
209 53 340
210 52 52
211 52 586
212 52 943
213 52 190
214 52 742
215 52 640
216 51 500
217 51 727
218 51 707
219 51 7
220 51 371
221 51 242
222 50 471
223 50 113
224 50 105
225 50 610
226 49 883
227 49 477
228 49 194
229 49 511
230 49 945
231 49 841
232 49 513
233 49 235
234 49 686
235 49 318
236 49 263
237 48 751
238 48 658
239 48 104
240 48 839
241 48 785
242 48 595
243 48 519
244 48 993
245 48 257
246 47 723
247 47 652
248 47 869
249 47 715
250 47 136
251 47 716
252 47 392
253 47 361
254 47 77
255 46 569
256 46 20
257 46 399
258 46 444
259 45 63
260 45 342
261 45 469
262 45 569
263 45 684
264 45 68
265 45 989
266 45 560
267 44 640
268 44 873
269 44 984
270 44 878
271 43 332
272 43 204
273 43 483
274 43 375
275 43 278
276 43 197
277 43 404
278 43 798
279 42 2
280 42 982
281 42 571
282 42 240
283 41 812
284 41 27
285 41 830
286 41 753
287 41 767
288 41 282
289 41 4
290 41 76
291 41 850
292 41 519
293 40 471
294 40 386
295 40 545
296 40 232
297 40 997
298 40 149
299 40 13
300 39 592
301 39 753
302 39 801
303 39 12
304 39 111
305 39 353
306 39 998
307 39 264
308 38 654
309 38 389
310 38 143
311 38 390
312 38 926
313 38 984
314 38 156
315 37 533
316 37 927
317 37 397
318 37 41
319 37 305
320 37 434
321 37 200
322 37 860
323 37 957
324 37 967
325 36 735
326 36 499
327 36 495
328 36 86
329 35 136
330 35 62
331 35 885
332 35 194
333 34 357
334 34 125
335 34 329
336 34 983
337 34 250
338 33 374
339 33 491
340 33 848
341 33 611
342 33 705
343 33 329
344 33 19
345 33 897
346 33 279
347 33 719
348 33 886
349 33 753
350 33 775
351 32 972
352 32 120
353 32 480
354 32 550
355 31 931
356 31 803
357 31 46
358 31 884
359 30 375
360 30 12
361 29 408
362 29 956
363 29 980
364 29 172
365 29 50
366 29 752
367 29 87
368 29 25
369 29 569
370 29 804
371 29 563
372 29 954
373 29 498
374 29 768
375 28 9
376 28 482
377 28 462
378 28 346
379 28 741
380 28 225
381 28 548
382 28 140
383 28 108
384 27 239
385 27 971
386 27 156
387 27 610
388 27 2
389 26 580
390 26 412
391 26 484
392 26 327
393 26 389
394 26 490
395 26 869
396 25 596
397 25 920
398 25 275
399 25 576
400 25 299
